NAME          BLANK   
ROWS
 N  OBJROW
 L  r114
 L  r115
 L  r116
 L  r117
 L  r118
 L  r119
 L  r120
 L  r121
 L  r122
 L  r123
 L  r124
 L  r125
 L  r126
 L  r127
 L  r128
COLUMNS
    c157      OBJROW    171.           r114      1.          
    c157      r122       -300.         r123       -300.      
    c158      OBJROW    171.           r114      1.          
    c158      r126       -300.         r127       -300.      
    c159      OBJROW    171.           r114      1.          
    c159      r119      300.           r120       -300.      
    c159      r123       -300.      
    c160      OBJROW    171.           r114      1.          
    c160      r119      300.           r120       -300.      
    c160      r121       -300.      
    c161      OBJROW    163.           r115      1.          
    c161      r119      285.           r120       -285.      
    c161      r124       -285.         r125       -285.      
    c162      OBJROW    162.           r115      1.          
    c162      r119      285.           r120       -285.      
    c162      r122       -285.         r123       -285.      
    c163      OBJROW    163.           r115      1.          
    c163      r128       -285.      
    c164      OBJROW    69.            r116      1.          
    c164      r119      265.           r120       -265.      
    c164      r124       -265.         r125       -265.      
    c165      OBJROW    69.            r116      1.          
    c165      r119      265.           r120       -265.      
    c165      r122       -265.         r123       -265.      
    c166      OBJROW    183.           r117      1.          
    c166      r118       -230.      
    c167      OBJROW    183.           r117      1.          
    c167      r124       -230.         r125       -230.      
    c168      OBJROW    183.           r117      1.          
    c168      r119      230.           r120       -230.      
    c168      r125       -230.      
    c169      OBJROW    183.           r117      1.          
    c169      r119      230.           r120       -230.      
    c169      r123       -230.      
    c170      OBJROW    49.            r119      190.        
    c170      r120       -190.         r122       -190.      
    c170      r123       -190.      
    c171      OBJROW    183.           r117      1.          
    c172      OBJROW    258.           r118       -200.      
    c173      OBJROW    517.           r118       -400.      
    c174      OBJROW    250.           r126       -200.      
    c174      r127       -200.      
    c175      OBJROW    500.           r126       -400.      
    c175      r127       -400.      
    c176      OBJROW    250.           r127       -200.      
    c177      OBJROW    500.           r127       -400.      
    c178      OBJROW    159.           r119      200.        
    c178      r120       -200.         r124       -200.      
    c178      r125       -200.      
    c179      OBJROW    318.           r119      400.        
    c179      r120       -400.         r124       -400.      
    c179      r125       -400.      
    c180      OBJROW    159.           r119      200.        
    c180      r120       -200.         r125       -200.      
    c181      OBJROW    318.           r119      400.        
    c181      r120       -400.         r125       -400.      
    c182      OBJROW    159.           r119      200.        
    c182      r120       -200.         r122       -200.      
    c182      r123       -200.      
    c183      OBJROW    318.           r119      400.        
    c183      r120       -400.         r122       -400.      
    c183      r123       -400.      
    c184      OBJROW    159.           r119      200.        
    c184      r120       -200.         r123       -200.      
    c185      OBJROW    318.           r119      400.        
    c185      r120       -400.         r123       -400.      
    c186      OBJROW    114.           r119      200.        
    c186      r120       -200.         r121       -200.      
    c187      OBJROW    228.           r119      400.        
    c187      r120       -400.         r121       -400.      
    c188      OBJROW    159.           r128       -200.      
    c189      OBJROW    318.           r128       -400.      
RHS
    RHS       r114      1.             r115      1.          
    RHS       r116      1.             r117      1.          
    RHS       r118       -5.           r119      2700.       
    RHS       r120       -2600.        r121       -100.      
    RHS       r122       -900.         r123       -1656.     
    RHS       r124       -335.         r125       -1026.     
    RHS       r126       -5.           r127       -500.      
    RHS       r128       -270.      
BOUNDS
 BV BOUND     c157      1.          
 BV BOUND     c158      1.          
 BV BOUND     c159      1.          
 BV BOUND     c160      1.          
 BV BOUND     c161      1.          
 BV BOUND     c162      1.          
 BV BOUND     c163      1.          
 BV BOUND     c164      1.          
 BV BOUND     c165      1.          
 BV BOUND     c166      1.          
 BV BOUND     c167      1.          
 BV BOUND     c168      1.          
 BV BOUND     c169      1.          
 BV BOUND     c170      1.          
 BV BOUND     c171      1.          
 BV BOUND     c172      1.          
 BV BOUND     c173      1.          
 BV BOUND     c174      1.          
 BV BOUND     c175      1.          
 BV BOUND     c176      1.          
 BV BOUND     c177      1.          
 BV BOUND     c178      1.          
 BV BOUND     c179      1.          
 BV BOUND     c180      1.          
 BV BOUND     c181      1.          
 BV BOUND     c182      1.          
 BV BOUND     c183      1.          
 BV BOUND     c184      1.          
 BV BOUND     c185      1.          
 BV BOUND     c186      1.          
 BV BOUND     c187      1.          
 BV BOUND     c188      1.          
 BV BOUND     c189      1.          
ENDATA
